p edge 50 119
e 0 8
e 0 10
e 0 23
e 0 41
e 0 47
e 1 28
e 1 41
e 2 11
e 2 14
e 2 37
e 2 49
e 3 22
e 3 29
e 4 6
e 4 11
e 4 20
e 4 34
e 4 36
e 4 49
e 5 9
e 5 29
e 5 32
e 5 42
e 6 16
e 6 26
e 6 27
e 6 40
e 7 25
e 7 26
e 7 44
e 8 11
e 8 20
e 8 28
e 8 33
e 9 12
e 9 15
e 9 34
e 9 36
e 9 39
e 10 15
e 10 18
e 10 22
e 10 24
e 10 32
e 10 40
e 10 46
e 11 15
e 11 20
e 11 31
e 11 33
e 11 38
e 11 43
e 12 24
e 12 39
e 12 40
e 13 22
e 13 36
e 13 39
e 14 32
e 14 38
e 16 21
e 16 24
e 16 35
e 16 40
e 16 42
e 16 43
e 16 45
e 17 42
e 18 20
e 18 31
e 18 47
e 19 31
e 19 36
e 19 43
e 19 48
e 20 32
e 20 41
e 20 42
e 21 26
e 21 27
e 22 23
e 22 25
e 22 28
e 22 32
e 22 45
e 23 43
e 23 45
e 25 27
e 26 39
e 27 29
e 27 39
e 28 33
e 28 41
e 28 45
e 29 33
e 29 35
e 30 37
e 30 41
e 30 48
e 31 36
e 31 42
e 32 37
e 32 40
e 32 43
e 32 46
e 32 48
e 33 49
e 34 40
e 35 40
e 36 40
e 36 46
e 36 49
e 37 49
e 39 43
e 39 45
e 41 49
e 42 45
e 43 47
e 45 47
